# Solution for model r5_t27_m7_3
# Finished Task: 23 / 27
# Makespan: 855.0, Total Distance: 1182.0, Total Time: 1.1023
# R O S F
0 0 15 0.0 0.0
1 1 5 0.0 0.0
2 2 30 0.0 0.0
3 3 9 0.0 0.0
4 4 20 0.0 0.0
5 1 27 232.0 267.0
6 3 13 325.0 346.0
7 -1 -1 -1.0 -1.0
8 4 11 574.0 607.0
9 3 12 164.0 200.0
10 1 -1 766.0 789.0
11 4 -1 748.0 769.0
12 3 6 286.0 315.0
13 3 17 404.0 439.0
14 3 18 799.0 820.0
15 0 26 343.0 364.0
16 4 8 507.0 544.0
17 3 31 534.0 567.0
18 3 -1 833.0 855.0
19 -1 -1 -1.0 -1.0
20 4 23 251.0 279.0
21 4 16 402.0 431.0
22 -1 -1 -1.0 -1.0
23 4 21 321.0 346.0
24 3 14 717.0 742.0
25 0 -1 724.0 756.0
26 0 25 643.0 671.0
27 1 28 644.0 679.0
28 1 10 723.0 755.0
29 -1 -1 -1.0 -1.0
30 2 -1 696.0 724.0
31 3 24 617.0 648.0
